NAME : amz1564.158128_111628.tour
COMMENT : Cost = 158128_111628
COMMENT : Found by LKH-AMZ [Keld Helsgaun] Sun May 11 14:55:40 2025
COMMENT : TW viol.: 0 #: 0
TYPE : TOUR
DIMENSION : 130
TOUR_SECTION
94
116
39
8
36
56
11
60
16
66
62
38
92
128
112
79
80
35
25
77
67
68
100
95
31
71
88
81
65
73
74
14
76
43
106
85
125
24
89
99
126
114
29
110
42
13
86
84
20
108
101
47
61
4
122
130
5
75
82
50
30
54
70
33
121
23
15
115
26
107
102
117
72
9
22
78
123
6
7
119
90
111
21
28
46
2
57
17
41
113
58
59
55
12
32
93
40
87
97
118
103
64
127
19
98
105
37
27
34
109
63
104
10
1
129
48
69
49
51
96
52
3
120
44
91
53
45
83
18
124
-1
EOF
